Version identifier: 20.1.0.0 | 2020-11-10 | 9bedb6d68
Tried aggregator 2 times.
MIP Presolve eliminated 1275 rows and 685 columns.
MIP Presolve modified 2616 coefficients.
Aggregator did 138 substitutions.
Reduced MIP has 1143 rows, 984 columns, and 3618 nonzeros.
Reduced MIP has 300 binaries, 684 generals, 0 SOSs, and 0 indicators.
Presolve time = 0.02 sec. (5.77 ticks)
Found incumbent of value 46.000000 after 0.03 sec. (9.95 ticks)
Probing fixed 30 vars, tightened 225 bounds.
Probing time = 0.00 sec. (1.13 ticks)
Tried aggregator 2 times.
Detecting symmetries...
MIP Presolve eliminated 439 rows and 32 columns.
MIP Presolve modified 90 coefficients.
Aggregator did 13 substitutions.
Reduced MIP has 691 rows, 939 columns, and 2254 nonzeros.
Reduced MIP has 368 binaries, 571 generals, 0 SOSs, and 0 indicators.
Presolve time = 0.01 sec. (3.33 ticks)
Probing time = 0.00 sec. (0.18 ticks)
Clique table members: 31.
MIP emphasis: balance optimality and feasibility.
MIP search method: dynamic search.
Parallel mode: deterministic, using up to 24 threads.
Root relaxation solution time = 0.00 sec. (1.97 ticks)

        Nodes                                         Cuts/
   Node  Left     Objective  IInf  Best Integer    Best Bound    ItCnt     Gap

*     0+    0                           46.0000        0.0000           100.00%
      0     0        0.0000    40       46.0000        0.0000      180  100.00%
      0     0        1.1429    82       46.0000     Cuts: 115      355   97.52%
*     0+    0                           15.0000        1.1429            92.38%
      0     0        2.0000    75       15.0000      Cuts: 85      410   86.67%
      0     0        2.0000    81       15.0000      Cuts: 42      447   86.67%
      0     0        2.0000   117       15.0000      Cuts: 61      533   86.67%
*     0+    0                           13.0000        2.0000            84.62%
*     0+    0                           12.0000        2.0000            83.33%
      0     0        cutoff             12.0000       12.0000      533    0.00%
Elapsed time = 0.40 sec. (92.58 ticks, tree = 0.01 MB, solutions = 4)

Cover cuts applied:  1
Implied bound cuts applied:  26
Flow cuts applied:  2
Mixed integer rounding cuts applied:  9
Zero-half cuts applied:  51
Lift and project cuts applied:  2
Gomory fractional cuts applied:  19

Root node processing (before b&c):
  Real time             =    0.40 sec. (92.68 ticks)
Parallel b&c, 24 threads:
  Real time             =    0.00 sec. (0.00 ticks)
  Sync time (average)   =    0.00 sec.
  Wait time (average)   =    0.00 sec.
                          ------------
Total (root+branch&cut) =    0.40 sec. (92.68 ticks)

Solution status = Optimal
Solution LB = 12
Solution UB = 12
Runtime = 0.41217 seconds
	Command being timed: "/home/min/git_repos/CS598MEBProject/CNT-ILP/build/cnt -s 2 ./output/k6_n30/simC_c1_k6_n30_u3_s1_del04.input-left.cnp"
	User time (seconds): 5.65
	System time (seconds): 0.08
	Percent of CPU this job got: 1276%
	Elapsed (wall clock) time (h:mm:ss or m:ss): 0:00.45
	Average shared text size (kbytes): 0
	Average unshared data size (kbytes): 0
	Average stack size (kbytes): 0
	Average total size (kbytes): 0
	Maximum resident set size (kbytes): 87364
	Average resident set size (kbytes): 0
	Major (requiring I/O) page faults: 0
	Minor (reclaiming a frame) page faults: 19511
	Voluntary context switches: 4094
	Involuntary context switches: 646
	Swaps: 0
	File system inputs: 0
	File system outputs: 16
	Socket messages sent: 0
	Socket messages received: 0
	Signals delivered: 0
	Page size (bytes): 4096
	Exit status: 0
